auto-dp/workflow/scripts/PACE2017-TrackA/6x6.gr
p tw 36 120
15 21
18 17
14 13
8 9
34 28
9 8
11 5
33 27
7 1
15 14
16 22
26 32
8 2
12 18
14 15
22 28
9 10
17 23
13 19
15 16
16 15
18 12
26 25
14 8
22 21
9 3
17 16
23 29
15 9
16 17
24 30
20 26
22 23
23 22
13 14
16 10
24 23
26 20
30 36
25 31
12 6
20 19
22 16
17 11
21 27
23 24
13 7
19 20
27 33
30 29
20 21
21 20
23 17
5 11
19 13
1 7
27 26
24 18
28 34
25 26
20 14
26 27
5 4
21 22
29 35
31 32
17 18
27 28
2 8
28 27
30 24
25 19
21 15
3 9
5 6
29 28
31 25
1 2
27 21
2 1
28 29
3 2
35 34
29 30
4 10
2 3
28 22
10 16
36 35
6 12
32 31
3 4
29 23
4 3
35 36
10 9
11 17
6 5
32 33
7 13
33 32
35 29
4 5
8 14
10 11
34 33
11 10
36 30
32 26
33 34
12 11
18 24
8 7
10 4
14 20
34 35
9 15
11 12
19 25
7 8
